p cnf 11 22
11 9 -1 0
-4 1 10 8 5 0
-5 2 0
7 -2 0
-5 1 -10 0
-4 -9 -5 11 7 3 6 2 0
7 11 8 0
-3 -9 6 0
11 -3 8 1 -6 9 5 7 -4 0
-7 -2 6 -8 -9 -5 11 -4 -10 3 1 0
1 -4 -2 -10 0
6 9 10 8 -1 7 -3 11 5 -4 -2 0
-9 -2 0
-11 5 0
9 -10 4 -5 0
-1 -3 0
6 -4 7 -3 -9 -1 0
10 1 0
9 -4 5 0
-6 4 0
-9 5 -2 -10 1 4 6 0
-9 3 0
